c File: instances/28_0.35_2.col
c
c Description: Random graph of size 28 vertices and P(0.35) of edges between any two vertices.
p col 28 378
e 1 4
e 1 5
e 1 8
e 1 14
e 1 15
e 1 19
e 1 21
e 1 24
e 2 3
e 2 7
e 2 8
e 2 9
e 2 11
e 2 17
e 2 18
e 2 19
e 2 21
e 2 22
e 2 24
e 2 25
e 2 26
e 2 28
e 3 10
e 3 20
e 3 22
e 3 27
e 4 5
e 4 7
e 4 10
e 4 11
e 4 12
e 4 14
e 4 16
e 4 19
e 4 21
e 4 23
e 4 24
e 5 8
e 5 9
e 5 13
e 5 15
e 5 16
e 5 23
e 5 26
e 6 7
e 6 9
e 6 12
e 6 16
e 6 18
e 6 22
e 6 26
e 6 28
e 7 8
e 7 10
e 7 11
e 7 13
e 7 15
e 7 18
e 7 21
e 7 23
e 7 25
e 7 26
e 8 11
e 8 13
e 8 21
e 8 22
e 8 24
e 8 26
e 8 27
e 8 28
e 9 12
e 9 13
e 9 14
e 9 16
e 9 17
e 9 18
e 9 19
e 9 24
e 9 25
e 9 26
e 10 15
e 10 17
e 10 23
e 10 24
e 10 28
e 11 13
e 11 20
e 11 21
e 11 22
e 11 24
e 11 27
e 12 15
e 12 16
e 12 17
e 12 21
e 12 22
e 12 23
e 12 24
e 12 27
e 12 28
e 13 17
e 13 18
e 13 20
e 13 23
e 13 25
e 14 15
e 14 16
e 14 17
e 14 18
e 14 19
e 14 21
e 14 22
e 14 24
e 14 27
e 14 28
e 15 16
e 15 22
e 15 24
e 15 27
e 16 19
e 16 20
e 16 21
e 16 26
e 17 18
e 17 19
e 17 27
e 17 28
e 18 19
e 18 20
e 18 24
e 18 26
e 19 23
e 19 24
e 20 22
e 20 25
e 20 28
e 21 22
e 21 23
e 21 25
e 21 28
e 22 23
e 22 25
e 22 26
e 23 24
e 23 27
e 24 25
e 24 26
e 27 28